Route #1: 4 34 46 8 35 7
Route #2: 52 27 45 29 48 30
Route #3: 2 62 28 61 21
Route #4: 5 47 36 60 20 37 15 57
Route #5: 13 54 19 59 14 53
Route #6: 11 38 10 31 39
Route #7: 9 25 55 18 50 32 44
Route #8: 3 16 49 24 23 56 41 43
Route #9: 63 42 64 22 1 33 6
Route #10: 51 17 40 12 58 26
Cost 845